\ENCODING=ISO-8859-1
\Problem name: IloCplex

Minimize
 obj: 1000000000000 x1 + 1000000000000 x2 + 1000000000000 x3 + 1000000000000 x4
      + 1000000000000 x5 + 1000000000000 x6 + 1000000000000 x7
      + 1000000000000 x8 + 1000000000000 x9 + 1000000000000 x10
      + 1000000000000 x11 + 1000000000000 x12 + 1000000000000 x13
      + 1000000000000 x14 + 1000000000000 x15 + 1000000000000 x16
      + 1000000000000 x17 + 1000000000000 x18 + 1000000000000 x19
      + 1000000000000 x20 + 1000000000000 x21 + 1000000000000 x22
      + 1000000000000 x23 + 1000000000000 x24 + 1000000000000 x25
      + 1000000000000 x26 + 1000000000000 x27 + 1000000000000 x28
      + 1000000000000 x29 + 1000000000000 x30 + 1000000000000 x31
      + 1000000000000 x32 + 1000000000000 x33 + 1000000000000 x34
      + 1000000000000 x35 + 1000000000000 x36 + 1000000000000 x37
      + 1000000000000 x38 + 1000000000000 x39 + 1000000000000 x40
      + 1000000000000 x41 + 1000000000000 x42 + 1000000000000 x43
      + 1000000000000 x44 + 1000000000000 x45 + 1000000000000 x46
      + 1000000000000 x47 + 1000000000000 x48 + 1000000000000 x49
      + 1000000000000 x50 + x51 + x52 + x53 + x54 + x55 + x56 + x57 + x58 + x59
      + x60 + x61 + x62 + x63 + x64 + x65 + x66 + x67 + x68 + x69 + x70 + x71
      + x72 + x73 + x74 + x75 + x76 + x77 + x78 + x79 + x80 + x81 + x82 + x83
      + x84 + x85 + x86 + x87 + x88 + x89 + x90 + x91 + x92 + x93 + x94 + x95
      + x96 + x97 + x98 + x99 + x100 + x101 + x102 + x103 + x104 + x105 + x106
      + x107 + x108 + x109 + x110 + x111 + x112 + x113 + x114 + x115 + x116
      + x117 + x118 + x119 + x120 + x121 + x122 + x123 + x124 + x125 + x126
      + x127 + x128 + x129 + x130 + x131 + x132 + x133 + x134 + x135 + x136
      + x137 + x138 + x139 + x140 + x141 + x142 + x143 + x144 + x145 + x146
      + x147 + x148 + x149 + x150 + x151 + x152 + x153 + x154 + x155 + x156
      + x157 + x158 + x159 + x160 + x161 + x162 + x163 + x164 + x165 + x166
      + x167 + x168 + x169 + x170 + x171 + x172 + x173 + x174 + x175 + x176
      + x177 + x178 + x179 + x180 + x181 + x182 + x183 + x184 + x185 + x186
      + x187 + x188 + x189 + x190 + x191 + x192 + x193 + x194 + x195 + x196
      + x197 + x198 + x199 + x200 + x201 + x202 + x203 + x204 + x205 + x206
      + x207 + x208 + x209 + x210 + x211 + x212 + x213 + x214 + x215 + x216
      + x217 + x218 + x219 + x220 + x221 + x222 + x223 + x224 + x225 + x226
      + x227
Subject To
 c1:  x1 + x195 + x199  = 1
 c2:  x2 + x184 + x194  = 1
 c3:  x3 + x188 + x193 + x202  = 1
 c4:  x4 + x182 + x187  = 1
 c5:  x5 + x168 + x177 + x186  = 1
 c6:  x6 + x178 + x181 + x212  = 1
 c7:  x7 + x164 + x167 + x176  = 1
 c8:  x8 + x153 + x156 + x201 + x208 + x217 + x224  = 1
 c9:  x9 + x142 + x144 + x180 + x207 + x227  = 1
 c10: x10 + x155 + x160 + x161 + x172 + x179  = 1
 c11: x11 + x148 + x152 + x165 + x192 + x205 + x221  = 1
 c12: x12 + x123 + x141 + x158  = 1
 c13: x13 + x134 + x135 + x143 + x146 + x159 + x210  = 1
 c14: x14 + x125 + x127 + x137 + x151 + x154 + x175 + x216  = 1
 c15: x15 + x120 + x121 + x209  = 1
 c16: x16 + x115 + x119 + x122 + x139 + x147 + x174 + x204  = 1
 c17: x17 + x111 + x112 + x113 + x183 + x198 + x203 + x225  = 1
 c18: x18 + x109 + x110 + x170  = 1
 c19: x19 + x100 + x108 + x109 + x130 + x145 + x171 + x218  = 1
 c20: x20 + x103 + x105 + x118 + x138 + x163 + x169 + x170 + x171 + x211 + x213
      + x220  = 1
 c21: x21 + x102 + x103 + x129 + x140 + x157 + x196 + x197 + x206 + x223  = 1
 c22: x22 + x96 + x98 + x99 + x100 + x110 + x114 + x115 + x120  = 1
 c23: x23 + x91 + x95 + x96 + x113 + x133 + x162 + x185 + x191 + x214 + x215
      + x216 + x220  = 1
 c24: x24 + x89 + x91 + x93 + x94 + x117 + x124 + x131 + x149 + x157 + x166
      + x185 + x198 + x203 + x204 + x213  = 1
 c25: x25 + x85 + x89 + x90 + x106 + x116 + x126 + x132 + x162 + x166 + x173
      + x174 + x175 + x189 + x200 + x209 + x210  = 1
 c26: x26 + x80 + x85 + x88 + x94 + x104 + x133 + x136 + x150 + x154 + x169
      + x189 + x191 + x197 + x219 + x222  = 1
 c27: x27 + x79 + x80 + x81 + x82 + x84 + x95 + x107 + x121 + x128 + x138
      + x147 + x173 + x190 + x196 + x200 + x219 + x226  = 1
 c28: x28 + x70 + x77 + x97 + x112 + x132 + x136 + x159 + x206 + x211 + x214
      + x215 + x222 + x226  = 1
 c29: x29 + x75 + x77 + x78 + x79 + x90 + x99 + x104 + x107 + x114 + x126
      + x131 + x148 + x219 + x225  = 1
 c30: x30 + x73 + x74 + x75 + x76 + x78 + x82 + x83 + x98 + x101 + x106 + x128
      + x129 + x130 + x131 + x132 + x163 + x179 + x190 + x223  = 1
 c31: x31 + x69 + x70 + x71 + x73 + x84 + x86 + x92 + x101 + x114 + x128 + x135
      + x142 + x205 + x226  = 1
 c32: x32 + x55 + x67 + x68 + x69 + x72 + x73 + x76 + x77 + x86 + x124 + x127
      + x140 + x141 + x149 + x150 + x155 + x183 + x190 + x191 + x192 + x200
      + x215 + x218 + x221 + x222 + x223 + x224 + x227  = 1
 c33: x33 + x67 + x68 + x69 + x70 + x76 + x87 + x88 + x92 + x97 + x102 + x104
      + x106 + x111 + x123 + x151 + x183 + x185 + x201 + x218  = 1
 c34: x34 + x63 + x64 + x65 + x66 + x68 + x71 + x74 + x83 + x85 + x93 + x97
      + x101 + x105 + x107 + x137 + x150 + x152 + x158 + x164  = 1
 c35: x35 + x62 + x63 + x64 + x65 + x66 + x69 + x72 + x73 + x75 + x81 + x87
      + x108 + x117 + x118 + x125 + x136 + x139 + x143 + x161 + x167 + x168
       = 1
 c36: x36 + x55 + x58 + x59 + x60 + x61 + x66 + x68 + x72 + x74 + x81 + x86
      + x87 + x91 + x111 + x119 + x129 + x140 + x145 + x146 + x150 + x163
      + x173 + x177 + x182 + x213  = 1
 c37: x37 + x55 + x56 + x58 + x59 + x60 + x62 + x64 + x67 + x71 + x78 + x81
      + x83 + x92 + x94 + x102 + x105 + x116 + x122 + x124 + x126 + x137 + x139
      + x145 + x160 + x162 + x165 + x180 + x181 + x187  = 1
 c38: x38 + x56 + x57 + x58 + x59 + x60 + x61 + x65 + x66 + x67 + x74 + x76
      + x77 + x84 + x90 + x93 + x97 + x116 + x117 + x122 + x123 + x156  = 1
 c39: x39 + x51 + x52 + x53 + x54 + x56 + x57 + x59 + x61 + x62 + x63 + x64
      + x65 + x68 + x72 + x82 + x83 + x84 + x86 + x87 + x88 + x90 + x92 + x94
      + x101 + x108 + x125 + x135 + x156 + x158 + x172 + x176 + x206 + x207
      + x214 + x218 + x220 + x221 + x225  = 1
 c40: x40 + x51 + x52 + x53 + x54 + x56 + x57 + x58 + x60 + x61 + x63 + x65
      + x67 + x71 + x72 + x75 + x83 + x86 + x87 + x92 + x95 + x100 + x110
      + x111 + x116 + x117 + x118 + x119 + x126 + x128 + x133 + x143 + x149
      + x165 + x166 + x169 + x184  = 1
 c41: x41 + x51 + x52 + x53 + x54 + x55 + x57 + x60 + x61 + x64 + x67 + x70
      + x79 + x82 + x90 + x93 + x98 + x116 + x118 + x124 + x127 + x129 + x133
      + x134 + x146 + x147 + x189 + x194 + x197 + x203 + x214  = 1
 c42: x42 + x51 + x52 + x53 + x54 + x55 + x56 + x57 + x60 + x62 + x63 + x66
      + x71 + x72 + x76 + x78 + x82 + x85 + x95 + x117 + x124 + x125 + x141
      + x145 + x151 + x160 + x173 + x186 + x188 + x211 + x212 + x217  = 1
 c43: x43 + x51 + x52 + x53 + x54 + x56 + x57 + x58 + x59 + x61 + x63 + x64
      + x66 + x69 + x74 + x78 + x80 + x87 + x89 + x93 + x96 + x107 + x108
      + x116 + x118 + x119 + x139 + x144 + x149 + x150 + x151 + x153 + x162
      + x178 + x196 + x200 + x202 + x206 + x207 + x208 + x211 + x217  = 1
 c44: x44 + x51 + x52 + x53 + x54 + x55 + x56 + x57 + x58 + x61 + x62 + x66
      + x70 + x83 + x84 + x88 + x96 + x99 + x106 + x107 + x122 + x130 + x134
      + x136 + x138 + x140 + x145 + x146 + x149 + x152 + x157 + x166 + x169
      + x172 + x176 + x195 + x208  = 1
 c45: x45 + x51 + x52 + x53 + x54 + x55 + x56 + x57 + x58 + x59 + x63 + x65
      + x72 + x74 + x79 + x81 + x86 + x88 + x89 + x92 + x98 + x104 + x113
      + x119 + x155 + x190 + x199 + x208 + x212  = 1
 c46: x46 + x51 + x52 + x53 + x54 + x55 + x56 + x59 + x60 + x61 + x65 + x68
      + x75 + x80 + x92 + x93 + x95 + x99 + x101 + x102 + x104 + x105 + x106
      + x108 + x112 + x127 + x143 + x157 + x163 + x172 + x189 + x193 + x198
      + x205 + x207 + x222  = 1
 c47: x47 + x51 + x52 + x53 + x54 + x57 + x58 + x59 + x60 + x62 + x64 + x65
      + x66 + x71 + x72 + x76 + x79 + x80 + x83 + x87 + x98 + x99 + x101 + x103
      + x130 + x134 + x149 + x153 + x166 + x180 + x204 + x214 + x217  = 1
 c48: x48 + x51 + x52 + x53 + x58 + x59 + x60 + x61 + x62 + x63 + x67 + x68
      + x73 + x78 + x79 + x87 + x88 + x89 + x97 + x98 + x99 + x112 + x133
      + x134 + x138 + x140 + x149 + x152 + x154 + x174 + x192 + x196 + x215
       = 1
 c49: x49 + x51 + x52 + x58 + x60 + x61 + x62 + x63 + x64 + x65 + x69 + x71
      + x74 + x80 + x82 + x86 + x88 + x91 + x102 + x105 + x116 + x117 + x122
      + x126 + x130 + x134 + x137 + x144 + x161 + x165 + x178 + x186 + x189
      + x190 + x193 + x209 + x225 + x226 + x227  = 1
 c50: x50 + x51 + x55 + x57 + x59 + x61 + x62 + x63 + x67 + x71 + x75 + x79
      + x84 + x86 + x89 + x96 + x97 + x105 + x108 + x114 + x115 + x121 + x136
      + x148 + x160 + x177 + x220 + x222 + x223 + x224  = 1
End
